c "264712.clq"
p edge 252 3776
e 1 17
e 1 18
e 1 19
e 1 20
e 1 21
e 1 23
e 1 25
e 1 26
e 1 27
e 1 28
e 1 29
e 1 31
e 1 32
e 1 33
e 1 34
e 1 36
e 1 37
e 1 38
e 1 40
e 1 43
e 1 44
e 1 45
e 1 49
e 1 50
e 1 51
e 1 54
e 1 63
e 1 64
e 1 65
e 1 66
e 1 70
e 1 73
e 1 74
e 1 75
e 1 77
e 1 84
e 1 85
e 1 107
e 1 113
e 1 116
e 1 118
e 1 125
e 1 128
e 1 129
e 1 139
e 1 140
e 1 144
e 1 152
e 1 169
e 1 170
e 1 175
e 1 178
e 1 191
e 1 200
e 1 220
e 1 229
e 1 236
e 1 240
e 1 244
e 1 247
e 1 248
e 2 17
e 2 18
e 2 19
e 2 20
e 2 21
e 2 22
e 2 24
e 2 28
e 2 32
e 2 38
e 2 40
e 2 41
e 2 42
e 2 43
e 2 47
e 2 56
e 2 58
e 2 59
e 2 61
e 2 62
e 2 68
e 2 70
e 2 77
e 2 86
e 2 96
e 2 100
e 2 128
e 2 136
e 2 141
e 2 147
e 2 149
e 2 150
e 2 158
e 2 176
e 2 185
e 2 199
e 2 216
e 2 234
e 2 238
e 2 243
e 2 248
e 3 17
e 3 18
e 3 19
e 3 20
e 3 21
e 3 22
e 3 26
e 3 28
e 3 31
e 3 34
e 3 41
e 3 45
e 3 48
e 3 50
e 3 56
e 3 66
e 3 68
e 3 72
e 3 89
e 3 95
e 3 98
e 3 105
e 3 108
e 3 111
e 3 115
e 3 117
e 3 132
e 3 138
e 3 148
e 3 151
e 3 164
e 3 205
e 3 213
e 3 222
e 3 224
e 3 242
e 4 17
e 4 18
e 4 19
e 4 21
e 4 24
e 4 25
e 4 33
e 4 38
e 4 40
e 4 41
e 4 52
e 4 55
e 4 57
e 4 58
e 4 71
e 4 96
e 4 108
e 4 113
e 4 149
e 4 161
e 4 162
e 4 172
e 4 175
e 4 177
e 4 241
e 4 246
e 4 248
e 5 17
e 5 18
e 5 19
e 5 22
e 5 23
e 5 45
e 5 48
e 5 62
e 5 79
e 5 98
e 5 100
e 5 131
e 5 183
e 5 186
e 5 202
e 6 17
e 6 18
e 6 19
e 6 20
e 6 22
e 6 23
e 6 25
e 6 27
e 6 29
e 6 31
e 6 32
e 6 34
e 6 35
e 6 37
e 6 48
e 6 49
e 6 50
e 6 51
e 6 52
e 6 56
e 6 89
e 6 100
e 6 104
e 6 106
e 6 126
e 6 131
e 6 141
e 6 145
e 6 157
e 6 175
e 6 189
e 6 193
e 6 196
e 6 210
e 6 222
e 7 17
e 7 18
e 7 20
e 7 21
e 7 22
e 7 25
e 7 27
e 7 34
e 7 38
e 7 46
e 7 47
e 7 58
e 7 60
e 7 62
e 7 66
e 7 81
e 7 109
e 7 115
e 7 132
e 7 146
e 7 159
e 7 163
e 7 168
e 7 180
e 7 203
e 8 17
e 8 18
e 8 19
e 8 20
e 8 21
e 8 22
e 8 23
e 8 24
e 8 27
e 8 29
e 8 34
e 8 35
e 8 39
e 8 41
e 8 42
e 8 46
e 8 47
e 8 49
e 8 51
e 8 52
e 8 59
e 8 63
e 8 64
e 8 65
e 8 67
e 8 71
e 8 79
e 8 87
e 8 90
e 8 93
e 8 110
e 8 113
e 8 115
e 8 124
e 8 134
e 8 137
e 8 149
e 8 150
e 8 151
e 8 162
e 8 167
e 8 169
e 8 174
e 8 183
e 8 196
e 8 213
e 8 219
e 8 222
e 8 227
e 8 231
e 8 233
e 8 236
e 8 238
e 8 242
e 8 245
e 8 248
e 8 252
e 9 17
e 9 18
e 9 19
e 9 20
e 9 21
e 9 22
e 9 23
e 9 24
e 9 25
e 9 26
e 9 29
e 9 30
e 9 36
e 9 39
e 9 40
e 9 43
e 9 44
e 9 49
e 9 52
e 9 55
e 9 57
e 9 58
e 9 60
e 9 63
e 9 89
e 9 90
e 9 91
e 9 100
e 9 102
e 9 106
e 9 108
e 9 111
e 9 124
e 9 127
e 9 131
e 9 133
e 9 147
e 9 148
e 9 149
e 9 160
e 9 171
e 9 181
e 9 196
e 9 209
e 9 215
e 9 246
e 9 250
e 10 17
e 10 18
e 10 19
e 10 20
e 10 22
e 10 24
e 10 26
e 10 27
e 10 30
e 10 35
e 10 38
e 10 39
e 10 40
e 10 42
e 10 44
e 10 46
e 10 49
e 10 55
e 10 56
e 10 66
e 10 67
e 10 73
e 10 74
e 10 77
e 10 78
e 10 81
e 10 89
e 10 100
e 10 103
e 10 118
e 10 121
e 10 131
e 10 142
e 10 144
e 10 150
e 10 152
e 10 167
e 10 176
e 10 191
e 10 193
e 10 203
e 10 216
e 10 218
e 10 226
e 10 245
e 11 17
e 11 20
e 11 26
e 11 29
e 11 30
e 11 46
e 11 50
e 11 53
e 11 54
e 11 59
e 11 62
e 11 65
e 11 67
e 11 70
e 11 72
e 11 76
e 11 80
e 11 88
e 11 93
e 11 104
e 11 106
e 11 108
e 11 111
e 11 112
e 11 126
e 11 133
e 11 141
e 11 154
e 11 155
e 11 159
e 11 170
e 11 182
e 11 196
e 11 208
e 11 235
e 11 238
e 11 247
e 12 17
e 12 18
e 12 19
e 12 21
e 12 23
e 12 24
e 12 25
e 12 26
e 12 28
e 12 31
e 12 36
e 12 45
e 12 48
e 12 74
e 12 80
e 12 82
e 12 93
e 12 102
e 12 107
e 12 119
e 12 142
e 12 159
e 12 183
e 12 188
e 12 225
e 12 239
e 13 17
e 13 18
e 13 19
e 13 20
e 13 21
e 13 22
e 13 23
e 13 24
e 13 27
e 13 28
e 13 29
e 13 30
e 13 31
e 13 32
e 13 33
e 13 37
e 13 40
e 13 43
e 13 46
e 13 48
e 13 49
e 13 52
e 13 58
e 13 59
e 13 70
e 13 74
e 13 75
e 13 87
e 13 88
e 13 91
e 13 101
e 13 114
e 13 118
e 13 126
e 13 130
e 13 137
e 13 143
e 13 166
e 13 169
e 13 170
e 13 174
e 13 178
e 13 180
e 13 186
e 13 197
e 13 200
e 13 204
e 13 214
e 13 220
e 13 221
e 13 223
e 13 232
e 13 239
e 13 241
e 14 17
e 14 18
e 14 19
e 14 20
e 14 21
e 14 22
e 14 23
e 14 25
e 14 28
e 14 29
e 14 31
e 14 33
e 14 35
e 14 46
e 14 53
e 14 61
e 14 63
e 14 64
e 14 70
e 14 85
e 14 90
e 14 91
e 14 100
e 14 101
e 14 109
e 14 115
e 14 122
e 14 134
e 14 136
e 14 140
e 14 142
e 14 145
e 14 154
e 14 158
e 14 159
e 14 160
e 14 163
e 14 176
e 14 188
e 14 189
e 14 191
e 14 198
e 14 228
e 14 232
e 14 249
e 14 251
e 15 17
e 15 18
e 15 19
e 15 20
e 15 21
e 15 22
e 15 23
e 15 24
e 15 26
e 15 27
e 15 29
e 15 30
e 15 32
e 15 33
e 15 35
e 15 36
e 15 37
e 15 38
e 15 39
e 15 40
e 15 42
e 15 49
e 15 51
e 15 52
e 15 55
e 15 56
e 15 59
e 15 60
e 15 61
e 15 64
e 15 69
e 15 81
e 15 82
e 15 84
e 15 85
e 15 92
e 15 98
e 15 100
e 15 104
e 15 105
e 15 112
e 15 115
e 15 127
e 15 139
e 15 140
e 15 147
e 15 149
e 15 152
e 15 153
e 15 157
e 15 169
e 15 176
e 15 180
e 15 181
e 15 187
e 15 200
e 15 205
e 15 210
e 15 224
e 15 232
e 15 235
e 15 243
e 16 17
e 16 18
e 16 19
e 16 20
e 16 21
e 16 23
e 16 24
e 16 25
e 16 26
e 16 28
e 16 29
e 16 32
e 16 33
e 16 37
e 16 38
e 16 41
e 16 47
e 16 51
e 16 56
e 16 59
e 16 61
e 16 63
e 16 69
e 16 70
e 16 72
e 16 73
e 16 75
e 16 77
e 16 81
e 16 82
e 16 83
e 16 91
e 16 93
e 16 101
e 16 104
e 16 106
e 16 109
e 16 110
e 16 114
e 16 120
e 16 128
e 16 148
e 16 152
e 16 153
e 16 155
e 16 157
e 16 161
e 16 163
e 16 167
e 16 171
e 16 197
e 16 198
e 16 209
e 16 214
e 16 240
e 17 18
e 17 19
e 17 20
e 17 21
e 17 22
e 17 23
e 17 24
e 17 25
e 17 26
e 17 27
e 17 28
e 17 29
e 17 30
e 17 31
e 17 32
e 17 33
e 17 34
e 17 35
e 17 36
e 17 37
e 17 38
e 17 40
e 17 41
e 17 43
e 17 44
e 17 47
e 17 48
e 17 49
e 17 50
e 17 52
e 17 53
e 17 57
e 17 58
e 17 59
e 17 65
e 17 71
e 17 73
e 17 76
e 17 78
e 17 80
e 17 82
e 17 84
e 17 87
e 17 91
e 17 92
e 17 95
e 17 99
e 17 101
e 17 106
e 17 108
e 17 110
e 17 113
e 17 115
e 17 117
e 17 118
e 17 120
e 17 121
e 17 122
e 17 124
e 17 138
e 17 150
e 17 154
e 17 157
e 17 158
e 17 160
e 17 163
e 17 165
e 17 166
e 17 168
e 17 174
e 17 181
e 17 184
e 17 186
e 17 188
e 17 190
e 17 192
e 17 194
e 17 195
e 17 196
e 17 200
e 17 202
e 17 206
e 17 211
e 17 214
e 17 215
e 17 217
e 17 218
e 17 231
e 18 19
e 18 20
e 18 21
e 18 22
e 18 23
e 18 24
e 18 25
e 18 26
e 18 27
e 18 28
e 18 30
e 18 31
e 18 32
e 18 33
e 18 34
e 18 35
e 18 38
e 18 39
e 18 40
e 18 41
e 18 42
e 18 43
e 18 45
e 18 46
e 18 48
e 18 49
e 18 50
e 18 51
e 18 54
e 18 57
e 18 61
e 18 65
e 18 66
e 18 67
e 18 69
e 18 70
e 18 80
e 18 81
e 18 82
e 18 88
e 18 90
e 18 92
e 18 93
e 18 97
e 18 98
e 18 99
e 18 102
e 18 107
e 18 110
e 18 111
e 18 113
e 18 114
e 18 116
e 18 119
e 18 120
e 18 121
e 18 125
e 18 126
e 18 132
e 18 134
e 18 135
e 18 137
e 18 139
e 18 140
e 18 143
e 18 144
e 18 149
e 18 155
e 18 162
e 18 163
e 18 164
e 18 166
e 18 167
e 18 169
e 18 170
e 18 171
e 18 174
e 18 181
e 18 184
e 18 185
e 18 187
e 18 189
e 18 191
e 18 196
e 18 211
e 18 212
e 18 213
e 18 218
e 18 219
e 18 224
e 18 227
e 18 232
e 18 235
e 18 236
e 18 238
e 18 242
e 18 246
e 18 249
e 18 252
e 19 20
e 19 21
e 19 22
e 19 23
e 19 24
e 19 25
e 19 26
e 19 27
e 19 28
e 19 29
e 19 30
e 19 32
e 19 33
e 19 35
e 19 36
e 19 37
e 19 41
e 19 44
e 19 45
e 19 51
e 19 52
e 19 55
e 19 60
e 19 62
e 19 64
e 19 65
e 19 67
e 19 70
e 19 71
e 19 73
e 19 75
e 19 76
e 19 77
e 19 84
e 19 87
e 19 88
e 19 93
e 19 94
e 19 96
e 19 97
e 19 99
e 19 105
e 19 106
e 19 107
e 19 112
e 19 115
e 19 116
e 19 119
e 19 121
e 19 122
e 19 123
e 19 133
e 19 135
e 19 136
e 19 137
e 19 139
e 19 144
e 19 147
e 19 160
e 19 163
e 19 168
e 19 169
e 19 170
e 19 171
e 19 175
e 19 181
e 19 187
e 19 188
e 19 193
e 19 198
e 19 202
e 19 205
e 19 210
e 19 217
e 19 218
e 19 219
e 19 230
e 19 234
e 19 244
e 19 249
e 19 250
e 19 251
e 20 21
e 20 22
e 20 23
e 20 24
e 20 25
e 20 26
e 20 27
e 20 28
e 20 29
e 20 30
e 20 31
e 20 32
e 20 33
e 20 34
e 20 35
e 20 36
e 20 37
e 20 38
e 20 39
e 20 42
e 20 44
e 20 45
e 20 46
e 20 47
e 20 49
e 20 50
e 20 53
e 20 54
e 20 56
e 20 58
e 20 60
e 20 61
e 20 62
e 20 63
e 20 64
e 20 66
e 20 68
e 20 71
e 20 73
e 20 74
e 20 77
e 20 78
e 20 79
e 20 81
e 20 82
e 20 83
e 20 85
e 20 86
e 20 87
e 20 93
e 20 94
e 20 95
e 20 103
e 20 107
e 20 110
e 20 117
e 20 123
e 20 124
e 20 129
e 20 130
e 20 131
e 20 133
e 20 135
e 20 136
e 20 137
e 20 140
e 20 142
e 20 149
e 20 158
e 20 160
e 20 161
e 20 170
e 20 172
e 20 174
e 20 175
e 20 178
e 20 179
e 20 182
e 20 187
e 20 191
e 20 196
e 20 199
e 20 201
e 20 202
e 20 205
e 20 206
e 20 207
e 20 208
e 20 214
e 20 215
e 20 225
e 20 229
e 20 238
e 21 22
e 21 23
e 21 24
e 21 25
e 21 26
e 21 27
e 21 28
e 21 29
e 21 30
e 21 31
e 21 32
e 21 33
e 21 34
e 21 35
e 21 37
e 21 38
e 21 39
e 21 40
e 21 43
e 21 44
e 21 45
e 21 47
e 21 48
e 21 50
e 21 51
e 21 52
e 21 53
e 21 54
e 21 57
e 21 58
e 21 60
e 21 61
e 21 62
e 21 64
e 21 68
e 21 69
e 21 71
e 21 75
e 21 79
e 21 83
e 21 84
e 21 86
e 21 89
e 21 94
e 21 95
e 21 97
e 21 99
e 21 101
e 21 103
e 21 105
e 21 106
e 21 108
e 21 109
e 21 114
e 21 115
e 21 117
e 21 119
e 21 122
e 21 124
e 21 127
e 21 129
e 21 130
e 21 135
e 21 136
e 21 143
e 21 144
e 21 146
e 21 150
e 21 161
e 21 164
e 21 165
e 21 168
e 21 171
e 21 173
e 21 174
e 21 176
e 21 181
e 21 182
e 21 185
e 21 200
e 21 229
e 21 230
e 21 233
e 21 234
e 22 23
e 22 24
e 22 25
e 22 27
e 22 28
e 22 29
e 22 32
e 22 33
e 22 34
e 22 35
e 22 36
e 22 37
e 22 38
e 22 39
e 22 41
e 22 43
e 22 53
e 22 54
e 22 56
e 22 59
e 22 62
e 22 68
e 22 69
e 22 71
e 22 72
e 22 76
e 22 78
e 22 80
e 22 83
e 22 86
e 22 94
e 22 95
e 22 97
e 22 102
e 22 111
e 22 144
e 22 146
e 22 149
e 22 150
e 22 154
e 22 158
e 22 163
e 22 165
e 22 177
e 22 187
e 22 194
e 22 201
e 22 204
e 22 207
e 22 215
e 22 221
e 22 223
e 22 225
e 22 229
e 22 240
e 22 250
e 23 24
e 23 25
e 23 26
e 23 27
e 23 28
e 23 30
e 23 31
e 23 34
e 23 35
e 23 36
e 23 39
e 23 40
e 23 41
e 23 43
e 23 44
e 23 45
e 23 46
e 23 50
e 23 53
e 23 58
e 23 63
e 23 67
e 23 68
e 23 70
e 23 71
e 23 75
e 23 78
e 23 81
e 23 82
e 23 87
e 23 103
e 23 106
e 23 107
e 23 108
e 23 109
e 23 111
e 23 115
e 23 116
e 23 117
e 23 119
e 23 134
e 23 139
e 23 143
e 23 145
e 23 147
e 23 154
e 23 156
e 23 162
e 23 170
e 23 174
e 23 179
e 23 186
e 23 191
e 23 196
e 23 207
e 23 213
e 23 221
e 23 223
e 23 226
e 23 228
e 23 230
e 23 234
e 23 238
e 23 244
e 23 247
e 23 252
e 24 25
e 24 26
e 24 27
e 24 30
e 24 31
e 24 32
e 24 36
e 24 37
e 24 38
e 24 39
e 24 41
e 24 42
e 24 46
e 24 47
e 24 48
e 24 62
e 24 64
e 24 66
e 24 75
e 24 79
e 24 80
e 24 82
e 24 90
e 24 95
e 24 96
e 24 99
e 24 101
e 24 103
e 24 111
e 24 114
e 24 122
e 24 139
e 24 146
e 24 150
e 24 154
e 24 155
e 24 163
e 24 172
e 24 175
e 24 184
e 24 203
e 24 205
e 24 206
e 24 208
e 24 210
e 24 213
e 24 230
e 24 248
e 25 26
e 25 28
e 25 30
e 25 31
e 25 33
e 25 34
e 25 35
e 25 36
e 25 39
e 25 44
e 25 47
e 25 50
e 25 53
e 25 57
e 25 61
e 25 62
e 25 63
e 25 64
e 25 66
e 25 70
e 25 72
e 25 84
e 25 91
e 25 92
e 25 94
e 25 103
e 25 111
e 25 118
e 25 119
e 25 120
e 25 130
e 25 132
e 25 149
e 25 150
e 25 154
e 25 171
e 25 172
e 25 180
e 25 188
e 25 198
e 25 204
e 25 209
e 25 212
e 25 218
e 25 226
e 25 241
e 26 27
e 26 29
e 26 30
e 26 32
e 26 40
e 26 42
e 26 45
e 26 51
e 26 53
e 26 55
e 26 56
e 26 59
e 26 69
e 26 71
e 26 72
e 26 75
e 26 83
e 26 85
e 26 87
e 26 89
e 26 90
e 26 93
e 26 98
e 26 100
e 26 101
e 26 110
e 26 112
e 26 113
e 26 122
e 26 130
e 26 140
e 26 141
e 26 142
e 26 146
e 26 152
e 26 154
e 26 159
e 26 161
e 26 164
e 26 167
e 26 168
e 26 171
e 26 185
e 26 190
e 26 203
e 26 205
e 26 208
e 26 212
e 26 222
e 26 226
e 26 232
e 26 233
e 26 237
e 26 245
e 27 28
e 27 29
e 27 31
e 27 32
e 27 33
e 27 34
e 27 42
e 27 43
e 27 44
e 27 48
e 27 53
e 27 55
e 27 58
e 27 59
e 27 66
e 27 73
e 27 74
e 27 76
e 27 77
e 27 79
e 27 87
e 27 88
e 27 89
e 27 92
e 27 93
e 27 95
e 27 96
e 27 100
e 27 102
e 27 110
e 27 111
e 27 119
e 27 132
e 27 136
e 27 138
e 27 145
e 27 151
e 27 155
e 27 157
e 27 159
e 27 179
e 27 197
e 27 211
e 27 214
e 27 246
e 27 249
e 28 30
e 28 31
e 28 33
e 28 34
e 28 36
e 28 46
e 28 50
e 28 51
e 28 56
e 28 58
e 28 60
e 28 61
e 28 63
e 28 73
e 28 75
e 28 76
e 28 79
e 28 80
e 28 82
e 28 86
e 28 88
e 28 89
e 28 92
e 28 95
e 28 97
e 28 103
e 28 107
e 28 117
e 28 119
e 28 125
e 28 132
e 28 135
e 28 137
e 28 138
e 28 143
e 28 146
e 28 151
e 28 155
e 28 162
e 28 179
e 28 186
e 28 192
e 28 212
e 28 213
e 28 234
e 29 30
e 29 32
e 29 34
e 29 35
e 29 36
e 29 37
e 29 38
e 29 39
e 29 40
e 29 41
e 29 45
e 29 47
e 29 49
e 29 52
e 29 53
e 29 54
e 29 55
e 29 57
e 29 58
e 29 61
e 29 66
e 29 68
e 29 71
e 29 72
e 29 74
e 29 75
e 29 80
e 29 81
e 29 86
e 29 88
e 29 91
e 29 92
e 29 101
e 29 103
e 29 104
e 29 108
e 29 117
e 29 120
e 29 131
e 29 143
e 29 144
e 29 146
e 29 148
e 29 155
e 29 173
e 29 177
e 29 178
e 29 180
e 29 185
e 29 204
e 29 209
e 29 225
e 29 230
e 29 231
e 29 245
e 30 31
e 30 34
e 30 36
e 30 37
e 30 43
e 30 48
e 30 49
e 30 51
e 30 52
e 30 53
e 30 60
e 30 64
e 30 72
e 30 74
e 30 79
e 30 82
e 30 90
e 30 91
e 30 104
e 30 106
e 30 112
e 30 119
e 30 122
e 30 123
e 30 126
e 30 128
e 30 161
e 30 195
e 30 203
e 30 208
e 30 209
e 30 230
e 30 233
e 30 237
e 30 241
e 31 36
e 31 37
e 31 39
e 31 41
e 31 42
e 31 44
e 31 45
e 31 46
e 31 48
e 31 57
e 31 61
e 31 62
e 31 63
e 31 65
e 31 67
e 31 68
e 31 72
e 31 75
e 31 77
e 31 79
e 31 89
e 31 94
e 31 96
e 31 97
e 31 103
e 31 105
e 31 112
e 31 114
e 31 117
e 31 146
e 31 150
e 31 157
e 31 160
e 31 165
e 31 170
e 31 178
e 31 189
e 31 190
e 31 194
e 31 200
e 31 202
e 31 204
e 31 217
e 31 227
e 31 237
e 31 240
e 31 247
e 32 33
e 32 37
e 32 38
e 32 40
e 32 43
e 32 44
e 32 48
e 32 52
e 32 53
e 32 59
e 32 63
e 32 70
e 32 71
e 32 76
e 32 78
e 32 87
e 32 91
e 32 98
e 32 100
e 32 109
e 32 120
e 32 121
e 32 125
e 32 126
e 32 127
e 32 134
e 32 135
e 32 137
e 32 139
e 32 141
e 32 153
e 32 157
e 32 160
e 32 162
e 32 172
e 32 173
e 32 182
e 32 191
e 32 209
e 32 211
e 32 215
e 32 218
e 32 230
e 32 238
e 32 241
e 32 244
e 32 245
e 32 246
e 33 35
e 33 39
e 33 45
e 33 47
e 33 49
e 33 51
e 33 52
e 33 68
e 33 69
e 33 73
e 33 74
e 33 77
e 33 91
e 33 92
e 33 93
e 33 94
e 33 97
e 33 98
e 33 103
e 33 104
e 33 110
e 33 111
e 33 112
e 33 116
e 33 120
e 33 122
e 33 123
e 33 127
e 33 129
e 33 132
e 33 141
e 33 152
e 33 156
e 33 157
e 33 163
e 33 165
e 33 167
e 33 169
e 33 178
e 33 197
e 33 205
e 33 214
e 33 230
e 33 245
e 33 250
e 33 251
e 34 35
e 34 36
e 34 37
e 34 38
e 34 40
e 34 41
e 34 44
e 34 46
e 34 52
e 34 55
e 34 63
e 34 68
e 34 76
e 34 83
e 34 88
e 34 89
e 34 90
e 34 92
e 34 103
e 34 105
e 34 108
e 34 116
e 34 118
e 34 126
e 34 127
e 34 128
e 34 132
e 34 148
e 34 151
e 34 155
e 34 158
e 34 160
e 34 163
e 34 165
e 34 172
e 34 177
e 34 184
e 34 186
e 34 188
e 34 193
e 34 218
e 34 222
e 34 224
e 34 226
e 34 242
e 34 246
e 34 247
e 34 250
e 34 251
e 35 40
e 35 42
e 35 43
e 35 44
e 35 46
e 35 47
e 35 51
e 35 57
e 35 58
e 35 60
e 35 62
e 35 65
e 35 69
e 35 83
e 35 84
e 35 85
e 35 86
e 35 97
e 35 98
e 35 106
e 35 116
e 35 118
e 35 120
e 35 123
e 35 126
e 35 131
e 35 137
e 35 141
e 35 144
e 35 149
e 35 156
e 35 164
e 35 180
e 35 183
e 35 194
e 35 195
e 35 199
e 35 201
e 35 217
e 35 237
e 35 244
e 36 39
e 36 42
e 36 48
e 36 54
e 36 66
e 36 67
e 36 74
e 36 76
e 36 82
e 36 89
e 36 96
e 36 97
e 36 98
e 36 107
e 36 114
e 36 119
e 36 120
e 36 123
e 36 127
e 36 130
e 36 131
e 36 134
e 36 139
e 36 143
e 36 148
e 36 149
e 36 155
e 36 165
e 36 183
e 36 186
e 36 188
e 36 193
e 36 194
e 36 199
e 36 204
e 36 211
e 36 219
e 36 224
e 36 226
e 36 229
e 36 231
e 36 233
e 36 236
e 36 238
e 36 239
e 36 242
e 36 249
e 37 39
e 37 41
e 37 42
e 37 44
e 37 49
e 37 50
e 37 54
e 37 56
e 37 66
e 37 74
e 37 77
e 37 84
e 37 88
e 37 97
e 37 98
e 37 104
e 37 112
e 37 114
e 37 117
e 37 121
e 37 123
e 37 125
e 37 130
e 37 142
e 37 148
e 37 178
e 37 180
e 37 183
e 37 193
e 37 195
e 37 199
e 37 201
e 37 212
e 37 232
e 38 42
e 38 43
e 38 47
e 38 50
e 38 58
e 38 60
e 38 61
e 38 66
e 38 67
e 38 77
e 38 78
e 38 81
e 38 85
e 38 95
e 38 99
e 38 101
e 38 115
e 38 121
e 38 125
e 38 130
e 38 133
e 38 145
e 38 157
e 38 160
e 38 188
e 38 193
e 38 194
e 38 199
e 39 43
e 39 46
e 39 49
e 39 52
e 39 55
e 39 57
e 39 62
e 39 71
e 39 78
e 39 90
e 39 102
e 39 112
e 39 122
e 39 124
e 39 129
e 39 131
e 39 133
e 39 150
e 39 162
e 39 169
e 39 174
e 39 191
e 39 192
e 39 201
e 39 214
e 39 218
e 39 243
e 39 251
e 40 41
e 40 42
e 40 43
e 40 49
e 40 52
e 40 53
e 40 54
e 40 55
e 40 57
e 40 59
e 40 61
e 40 67
e 40 68
e 40 73
e 40 77
e 40 83
e 40 86
e 40 88
e 40 93
e 40 95
e 40 98
e 40 102
e 40 114
e 40 120
e 40 126
e 40 130
e 40 135
e 40 141
e 40 145
e 40 147
e 40 151
e 40 152
e 40 154
e 40 168
e 40 174
e 40 195
e 40 196
e 40 214
e 40 217
e 40 221
e 40 225
e 40 232
e 40 238
e 40 242
e 40 245
e 41 42
e 41 51
e 41 54
e 41 56
e 41 57
e 41 58
e 41 62
e 41 67
e 41 69
e 41 70
e 41 74
e 41 76
e 41 78
e 41 87
e 41 94
e 41 102
e 41 106
e 41 112
e 41 117
e 41 118
e 41 121
e 41 123
e 41 124
e 41 128
e 41 140
e 41 144
e 41 153
e 41 161
e 41 168
e 41 170
e 41 193
e 41 213
e 41 235
e 41 239
e 41 245
e 42 44
e 42 45
e 42 48
e 42 54
e 42 56
e 42 65
e 42 70
e 42 78
e 42 80
e 42 85
e 42 90
e 42 96
e 42 97
e 42 99
e 42 109
e 42 111
e 42 116
e 42 118
e 42 123
e 42 128
e 42 130
e 42 135
e 42 140
e 42 147
e 42 148
e 42 154
e 42 155
e 42 158
e 42 162
e 42 184
e 42 204
e 42 207
e 42 213
e 42 214
e 42 227
e 42 252
e 43 45
e 43 47
e 43 50
e 43 55
e 43 56
e 43 68
e 43 76
e 43 79
e 43 87
e 43 98
e 43 104
e 43 105
e 43 109
e 43 113
e 43 115
e 43 118
e 43 119
e 43 120
e 43 128
e 43 133
e 43 139
e 43 171
e 43 177
e 43 179
e 43 180
e 43 192
e 43 195
e 43 200
e 43 203
e 43 217
e 44 45
e 44 46
e 44 47
e 44 54
e 44 55
e 44 57
e 44 67
e 44 71
e 44 90
e 44 93
e 44 95
e 44 97
e 44 104
e 44 126
e 44 133
e 44 156
e 44 158
e 44 159
e 44 162
e 44 165
e 44 176
e 44 178
e 44 189
e 44 190
e 44 193
e 44 197
e 44 198
e 44 206
e 44 228
e 44 229
e 44 246
e 45 47
e 45 54
e 45 57
e 45 59
e 45 65
e 45 66
e 45 68
e 45 69
e 45 70
e 45 95
e 45 100
e 45 137
e 45 142
e 45 164
e 45 166
e 45 179
e 45 184
e 45 204
e 45 206
e 45 214
e 45 227
e 45 239
e 45 246
e 46 48
e 46 51
e 46 54
e 46 75
e 46 81
e 46 90
e 46 105
e 46 134
e 46 138
e 46 158
e 46 173
e 46 183
e 46 185
e 46 187
e 46 203
e 46 213
e 46 243
e 47 50
e 47 57
e 47 61
e 47 64
e 47 73
e 47 79
e 47 132
e 47 135
e 47 149
e 47 156
e 47 168
e 47 201
e 47 209
e 47 215
e 47 250
e 48 51
e 48 53
e 48 55
e 48 63
e 48 65
e 48 72
e 48 73
e 48 75
e 48 80
e 48 83
e 48 85
e 48 95
e 48 107
e 48 126
e 48 127
e 48 133
e 48 136
e 48 137
e 48 145
e 48 147
e 48 150
e 48 153
e 48 175
e 48 195
e 48 201
e 48 214
e 48 218
e 48 224
e 48 240
e 48 244
e 49 50
e 49 55
e 49 60
e 49 62
e 49 68
e 49 69
e 49 71
e 49 80
e 49 82
e 49 83
e 49 85
e 49 92
e 49 99
e 49 101
e 49 104
e 49 112
e 49 118
e 49 122
e 49 125
e 49 129
e 49 133
e 49 140
e 49 151
e 49 156
e 49 162
e 49 163
e 49 190
e 49 195
e 49 208
e 49 210
e 49 225
e 49 235
e 49 247
e 50 61
e 50 64
e 50 70
e 50 72
e 50 75
e 50 79
e 50 80
e 50 84
e 50 85
e 50 91
e 50 92
e 50 94
e 50 99
e 50 112
e 50 113
e 50 121
e 50 124
e 50 125
e 50 134
e 50 140
e 50 144
e 50 152
e 50 161
e 50 174
e 50 176
e 50 182
e 50 188
e 50 194
e 50 198
e 50 209
e 50 221
e 50 223
e 50 227
e 50 248
e 50 252
e 51 54
e 51 55
e 51 56
e 51 59
e 51 63
e 51 65
e 51 66
e 51 69
e 51 78
e 51 81
e 51 83
e 51 90
e 51 110
e 51 114
e 51 119
e 51 130
e 51 132
e 51 168
e 51 171
e 51 191
e 51 216
e 51 218
e 51 220
e 51 239
e 51 240
e 51 249
e 52 53
e 52 58
e 52 60
e 52 61
e 52 63
e 52 64
e 52 65
e 52 67
e 52 69
e 52 87
e 52 89
e 52 108
e 52 109
e 52 110
e 52 114
e 52 116
e 52 139
e 52 141
e 52 158
e 52 166
e 52 174
e 52 180
e 52 183
e 52 187
e 52 202
e 52 211
e 52 222
e 53 57
e 53 59
e 53 60
e 53 64
e 53 80
e 53 94
e 53 100
e 53 106
e 53 118
e 53 130
e 53 135
e 53 143
e 53 153
e 53 165
e 53 170
e 53 179
e 53 182
e 53 184
e 53 195
e 53 208
e 53 210
e 54 56
e 54 60
e 54 64
e 54 67
e 54 73
e 54 75
e 54 76
e 54 81
e 54 83
e 54 99
e 54 102
e 54 107
e 54 129
e 54 132
e 54 145
e 54 148
e 54 151
e 54 152
e 54 163
e 54 171
e 54 173
e 54 181
e 54 186
e 54 189
e 54 234
e 54 235
e 54 238
e 54 252
e 55 60
e 55 71
e 55 74
e 55 77
e 55 86
e 55 87
e 55 94
e 55 96
e 55 101
e 55 129
e 55 147
e 55 154
e 55 159
e 55 167
e 55 187
e 55 191
e 55 192
e 55 210
e 55 219
e 55 237
e 55 240
e 56 59
e 56 63
e 56 68
e 56 72
e 56 74
e 56 77
e 56 85
e 56 87
e 56 90
e 56 92
e 56 94
e 56 98
e 56 104
e 56 114
e 56 115
e 56 116
e 56 132
e 56 133
e 56 136
e 56 157
e 56 158
e 56 161
e 56 165
e 56 180
e 56 186
e 56 187
e 56 189
e 56 202
e 56 205
e 56 214
e 56 221
e 56 234
e 56 239
e 56 245
e 56 249
e 57 67
e 57 76
e 57 78
e 57 101
e 57 108
e 57 112
e 57 119
e 57 128
e 57 140
e 57 167
e 57 168
e 57 169
e 57 200
e 57 202
e 57 219
e 57 223
e 57 224
e 57 232
e 57 238
e 58 60
e 58 72
e 58 80
e 58 83
e 58 118
e 58 138
e 58 150
e 58 156
e 58 178
e 58 180
e 58 191
e 58 223
e 59 68
e 59 79
e 59 86
e 59 95
e 59 106
e 59 108
e 59 109
e 59 115
e 59 124
e 59 134
e 59 140
e 59 158
e 59 172
e 59 198
e 59 218
e 59 220
e 59 233
e 59 243
e 60 62
e 60 64
e 60 69
e 60 72
e 60 76
e 60 82
e 60 84
e 60 97
e 60 113
e 60 123
e 60 142
e 60 147
e 60 179
e 60 205
e 60 221
e 60 226
e 60 230
e 60 234
e 61 65
e 61 81
e 61 83
e 61 94
e 61 102
e 61 126
e 61 141
e 61 146
e 61 147
e 61 152
e 61 155
e 61 158
e 61 167
e 61 176
e 61 190
e 61 200
e 61 208
e 61 228
e 61 233
e 61 235
e 61 240
e 61 244
e 62 66
e 62 73
e 62 85
e 62 94
e 62 102
e 62 123
e 62 129
e 62 136
e 62 140
e 62 149
e 62 154
e 62 166
e 62 173
e 62 192
e 62 202
e 62 216
e 62 233
e 62 234
e 62 242
e 63 65
e 63 67
e 63 73
e 63 74
e 63 76
e 63 78
e 63 79
e 63 86
e 63 91
e 63 98
e 63 102
e 63 103
e 63 107
e 63 127
e 63 128
e 63 129
e 63 130
e 63 143
e 63 145
e 63 150
e 63 154
e 63 172
e 63 176
e 63 179
e 63 181
e 63 191
e 63 197
e 63 202
e 63 211
e 63 212
e 63 214
e 63 221
e 63 223
e 63 227
e 63 237
e 63 243
e 64 65
e 64 74
e 64 80
e 64 84
e 64 92
e 64 93
e 64 102
e 64 103
e 64 110
e 64 114
e 64 121
e 64 122
e 64 124
e 64 131
e 64 133
e 64 138
e 64 142
e 64 153
e 64 164
e 64 166
e 64 173
e 64 185
e 64 205
e 64 206
e 64 210
e 64 217
e 64 218
e 64 224
e 64 227
e 64 233
e 64 243
e 64 245
e 65 70
e 65 71
e 65 84
e 65 91
e 65 92
e 65 93
e 65 96
e 65 97
e 65 109
e 65 114
e 65 117
e 65 121
e 65 134
e 65 135
e 65 157
e 65 174
e 65 186
e 65 188
e 65 220
e 65 227
e 65 228
e 65 242
e 66 72
e 66 73
e 66 78
e 66 84
e 66 85
e 66 87
e 66 89
e 66 117
e 66 126
e 66 135
e 66 139
e 66 162
e 66 185
e 66 195
e 66 198
e 66 203
e 66 205
e 66 217
e 66 242
e 66 249
e 67 69
e 67 97
e 67 105
e 67 109
e 67 110
e 67 133
e 67 162
e 68 69
e 68 76
e 68 77
e 68 78
e 68 79
e 68 84
e 68 86
e 68 88
e 68 94
e 68 96
e 68 99
e 68 101
e 68 105
e 68 113
e 68 126
e 68 127
e 68 128
e 68 142
e 68 145
e 68 152
e 68 156
e 68 159
e 68 161
e 68 165
e 68 169
e 68 171
e 68 175
e 68 182
e 68 198
e 68 213
e 68 216
e 68 221
e 68 244
e 68 246
e 68 248
e 69 91
e 69 105
e 69 127
e 69 129
e 69 143
e 69 156
e 69 168
e 69 170
e 69 216
e 69 218
e 69 219
e 70 86
e 70 88
e 70 93
e 70 102
e 70 109
e 70 122
e 70 125
e 70 134
e 70 136
e 70 146
e 70 147
e 70 158
e 70 159
e 70 160
e 70 169
e 70 182
e 70 187
e 70 188
e 70 193
e 70 198
e 70 204
e 70 207
e 70 216
e 70 228
e 70 246
e 71 72
e 71 77
e 71 99
e 71 118
e 71 120
e 71 139
e 71 143
e 71 145
e 71 152
e 71 161
e 71 164
e 71 177
e 71 184
e 71 185
e 71 187
e 71 197
e 71 199
e 71 219
e 71 224
e 71 228
e 71 231
e 71 236
e 72 81
e 72 82
e 72 84
e 72 106
e 72 122
e 72 125
e 72 135
e 72 153
e 72 203
e 72 233
e 72 248
e 73 83
e 73 88
e 73 94
e 73 106
e 73 108
e 73 114
e 73 118
e 73 122
e 73 131
e 73 152
e 73 161
e 73 169
e 73 172
e 73 177
e 73 187
e 73 222
e 73 238
e 73 245
e 74 75
e 74 86
e 74 100
e 74 115
e 74 125
e 74 136
e 74 150
e 74 165
e 74 177
e 74 182
e 74 191
e 74 216
e 74 222
e 74 242
e 74 245
e 75 80
e 75 81
e 75 85
e 75 98
e 75 101
e 75 105
e 75 111
e 75 112
e 75 117
e 75 121
e 75 124
e 75 134
e 75 160
e 75 167
e 75 170
e 75 187
e 75 192
e 75 200
e 75 201
e 75 205
e 75 215
e 76 78
e 76 79
e 76 86
e 76 99
e 76 113
e 76 134
e 76 142
e 76 147
e 76 178
e 76 180
e 76 190
e 76 247
e 77 89
e 77 111
e 77 129
e 77 166
e 77 182
e 77 192
e 77 232
e 78 82
e 78 83
e 78 92
e 78 99
e 78 102
e 78 108
e 78 119
e 78 127
e 78 131
e 78 141
e 78 142
e 78 163
e 78 167
e 78 170
e 78 177
e 78 204
e 78 209
e 78 232
e 78 250
e 79 81
e 79 82
e 79 85
e 79 86
e 79 88
e 79 115
e 79 123
e 79 174
e 79 182
e 79 200
e 79 220
e 79 230
e 79 235
e 79 237
e 79 242
e 79 252
e 80 95
e 80 108
e 80 131
e 80 132
e 80 143
e 80 144
e 80 151
e 80 157
e 80 159
e 80 162
e 80 173
e 80 174
e 80 192
e 80 202
e 80 206
e 80 226
e 80 228
e 81 89
e 81 90
e 81 105
e 81 110
e 81 138
e 81 142
e 81 156
e 81 172
e 81 173
e 81 182
e 81 185
e 81 189
e 81 190
e 81 191
e 81 197
e 81 202
e 81 207
e 81 208
e 81 222
e 81 227
e 81 232
e 81 244
e 82 84
e 82 91
e 82 96
e 82 104
e 82 105
e 82 107
e 82 117
e 82 141
e 82 164
e 82 183
e 82 186
e 82 188
e 82 224
e 82 234
e 83 87
e 83 91
e 83 100
e 83 107
e 83 109
e 83 138
e 83 139
e 83 151
e 83 157
e 83 161
e 83 169
e 83 173
e 83 236
e 83 243
e 84 88
e 84 98
e 84 100
e 84 113
e 84 135
e 84 137
e 84 163
e 84 164
e 84 170
e 84 239
e 84 250
e 85 138
e 85 162
e 85 177
e 85 197
e 85 201
e 85 223
e 85 230
e 86 88
e 86 99
e 86 102
e 86 109
e 86 120
e 86 127
e 86 138
e 86 169
e 86 189
e 86 205
e 86 228
e 87 89
e 87 96
e 87 97
e 87 104
e 87 111
e 87 129
e 87 138
e 87 153
e 87 176
e 87 199
e 87 219
e 87 247
e 88 90
e 88 93
e 88 100
e 88 144
e 88 155
e 88 169
e 88 210
e 88 212
e 88 231
e 88 236
e 89 96
e 89 103
e 89 105
e 89 142
e 89 175
e 89 201
e 89 223
e 89 233
e 90 92
e 90 99
e 90 107
e 90 116
e 90 117
e 90 131
e 90 143
e 90 145
e 90 152
e 90 164
e 90 171
e 90 172
e 90 216
e 90 220
e 90 221
e 90 228
e 90 237
e 91 110
e 91 113
e 91 114
e 91 116
e 91 132
e 91 133
e 91 153
e 91 167
e 91 177
e 91 178
e 91 182
e 91 185
e 91 189
e 91 201
e 91 216
e 91 219
e 91 220
e 91 225
e 91 239
e 91 240
e 91 244
e 91 252
e 92 95
e 92 96
e 92 103
e 92 104
e 92 110
e 92 130
e 92 137
e 92 140
e 92 143
e 92 153
e 92 166
e 92 172
e 92 202
e 92 215
e 93 103
e 93 113
e 93 139
e 93 144
e 93 159
e 93 181
e 93 183
e 93 210
e 93 211
e 94 96
e 94 107
e 94 112
e 94 116
e 94 127
e 94 133
e 94 136
e 94 148
e 94 155
e 94 157
e 94 166
e 94 181
e 94 198
e 94 208
e 94 217
e 94 218
e 94 229
e 94 241
e 94 247
e 94 249
e 95 101
e 95 116
e 95 117
e 95 193
e 95 241
e 96 101
e 96 107
e 96 120
e 96 135
e 96 148
e 96 153
e 96 195
e 96 196
e 96 207
e 96 247
e 96 252
e 97 110
e 97 122
e 97 141
e 97 147
e 97 164
e 97 184
e 97 197
e 98 122
e 98 123
e 98 128
e 98 145
e 98 146
e 98 160
e 98 161
e 98 165
e 98 207
e 98 208
e 98 230
e 98 231
e 98 242
e 98 246
e 99 113
e 99 120
e 99 123
e 99 148
e 99 173
e 99 197
e 99 219
e 99 221
e 99 228
e 99 234
e 99 236
e 99 252
e 100 104
e 100 115
e 100 134
e 100 143
e 100 173
e 100 209
e 100 215
e 100 231
e 100 239
e 101 124
e 101 162
e 102 111
e 102 116
e 102 128
e 102 140
e 102 141
e 102 147
e 102 152
e 102 183
e 102 198
e 102 216
e 102 226
e 103 109
e 103 137
e 103 142
e 103 156
e 103 163
e 103 167
e 103 197
e 103 239
e 104 105
e 104 106
e 104 108
e 104 124
e 104 129
e 104 134
e 104 158
e 104 159
e 104 160
e 104 163
e 104 193
e 104 212
e 104 218
e 104 233
e 104 236
e 104 244
e 105 113
e 105 138
e 105 149
e 105 152
e 105 172
e 105 173
e 105 184
e 105 200
e 105 201
e 105 204
e 105 229
e 105 237
e 106 112
e 106 119
e 106 121
e 106 125
e 106 127
e 106 140
e 106 211
e 106 224
e 106 229
e 106 234
e 106 239
e 106 242
e 106 243
e 107 111
e 107 121
e 107 124
e 107 130
e 107 143
e 107 144
e 107 177
e 107 178
e 107 193
e 107 198
e 107 204
e 107 207
e 107 211
e 107 213
e 107 226
e 108 123
e 108 141
e 108 157
e 108 166
e 108 171
e 108 179
e 108 187
e 108 198
e 108 248
e 108 251
e 109 126
e 109 134
e 109 165
e 109 229
e 110 126
e 110 132
e 110 224
e 110 250
e 111 116
e 111 125
e 111 137
e 111 159
e 111 175
e 111 177
e 111 246
e 112 137
e 112 153
e 112 155
e 112 178
e 112 194
e 112 234
e 112 244
e 112 247
e 112 252
e 113 119
e 113 120
e 113 121
e 113 125
e 113 135
e 113 178
e 113 215
e 113 219
e 113 228
e 113 229
e 113 249
e 114 118
e 114 121
e 114 125
e 114 128
e 114 136
e 114 138
e 114 146
e 114 176
e 114 178
e 114 194
e 114 215
e 114 216
e 114 226
e 114 250
e 115 136
e 115 146
e 115 177
e 115 185
e 115 192
e 115 199
e 115 215
e 115 220
e 115 221
e 115 223
e 115 224
e 115 241
e 115 243
e 116 137
e 116 138
e 116 147
e 116 148
e 116 149
e 116 179
e 116 182
e 116 206
e 116 226
e 116 229
e 116 243
e 117 155
e 117 164
e 117 168
e 117 184
e 117 188
e 117 206
e 117 245
e 117 249
e 118 130
e 118 144
e 118 153
e 118 212
e 118 231
e 118 243
e 119 123
e 119 125
e 119 131
e 119 139
e 119 172
e 119 181
e 119 186
e 119 190
e 119 200
e 119 209
e 119 212
e 119 220
e 119 228
e 119 250
e 120 124
e 120 133
e 120 179
e 120 210
e 121 129
e 121 164
e 121 175
e 121 196
e 122 146
e 122 197
e 122 208
e 122 214
e 122 232
e 123 124
e 123 128
e 123 181
e 123 223
e 124 129
e 124 144
e 124 166
e 124 194
e 124 199
e 124 229
e 125 128
e 125 145
e 125 146
e 125 151
e 125 153
e 125 164
e 125 184
e 125 190
e 125 194
e 125 220
e 125 232
e 125 239
e 125 248
e 125 252
e 126 127
e 126 151
e 126 162
e 126 165
e 126 183
e 126 185
e 126 192
e 126 199
e 126 217
e 126 241
e 127 131
e 127 138
e 127 148
e 127 151
e 127 168
e 127 175
e 127 188
e 127 190
e 127 222
e 127 227
e 127 235
e 127 245
e 128 151
e 128 156
e 128 161
e 128 191
e 128 220
e 128 222
e 128 225
e 128 238
e 129 166
e 129 180
e 129 189
e 129 199
e 129 208
e 129 209
e 129 221
e 129 242
e 130 154
e 130 166
e 130 188
e 130 192
e 130 211
e 130 217
e 130 231
e 130 240
e 131 132
e 131 158
e 131 181
e 131 200
e 132 136
e 132 167
e 132 183
e 132 216
e 132 251
e 133 136
e 133 148
e 133 180
e 133 194
e 133 207
e 134 142
e 134 170
e 134 201
e 134 209
e 134 222
e 134 236
e 135 139
e 135 160
e 135 236
e 136 151
e 136 173
e 136 186
e 136 200
e 136 201
e 136 207
e 136 224
e 137 156
e 137 159
e 137 174
e 137 190
e 137 206
e 137 209
e 138 149
e 138 153
e 138 154
e 138 176
e 138 193
e 138 213
e 139 141
e 139 156
e 139 189
e 139 190
e 139 196
e 139 203
e 139 216
e 139 217
e 139 227
e 139 236
e 140 145
e 140 154
e 140 175
e 140 196
e 140 206
e 140 235
e 140 236
e 141 148
e 141 161
e 141 169
e 141 176
e 141 193
e 141 236
e 142 150
e 142 187
e 142 190
e 142 215
e 143 187
e 143 189
e 143 199
e 143 235
e 144 145
e 144 146
e 144 151
e 144 155
e 144 159
e 144 164
e 144 168
e 144 173
e 144 176
e 144 181
e 144 186
e 144 199
e 144 208
e 145 160
e 145 176
e 145 218
e 146 194
e 146 219
e 146 246
e 146 251
e 147 156
e 147 157
e 147 166
e 147 167
e 147 172
e 147 206
e 147 212
e 147 225
e 147 240
e 147 243
e 147 246
e 148 150
e 148 184
e 148 188
e 148 203
e 148 210
e 148 227
e 148 231
e 149 204
e 149 220
e 150 156
e 150 170
e 150 179
e 150 180
e 150 181
e 150 186
e 150 205
e 151 166
e 151 173
e 151 235
e 152 160
e 152 167
e 152 171
e 152 175
e 152 185
e 152 209
e 152 211
e 152 219
e 152 239
e 154 189
e 155 183
e 155 185
e 155 211
e 155 224
e 156 168
e 156 191
e 156 192
e 156 197
e 156 204
e 156 224
e 156 244
e 156 247
e 157 184
e 157 220
e 157 228
e 158 165
e 158 212
e 158 221
e 159 175
e 159 226
e 159 231
e 159 245
e 159 248
e 160 177
e 160 179
e 160 183
e 160 210
e 160 233
e 160 250
e 161 202
e 162 181
e 162 192
e 162 195
e 162 211
e 162 248
e 162 250
e 163 172
e 163 195
e 163 222
e 163 236
e 163 246
e 163 251
e 164 213
e 164 240
e 164 247
e 165 168
e 165 171
e 165 207
e 165 225
e 165 227
e 165 231
e 166 174
e 166 175
e 166 196
e 166 201
e 166 227
e 166 237
e 167 171
e 167 180
e 167 225
e 167 236
e 167 242
e 168 184
e 168 206
e 168 207
e 168 252
e 169 183
e 169 200
e 169 203
e 169 207
e 169 214
e 169 225
e 169 234
e 170 178
e 170 192
e 170 194
e 170 204
e 170 210
e 170 225
e 170 243
e 171 199
e 171 207
e 171 209
e 171 247
e 172 189
e 172 201
e 172 237
e 172 240
e 172 249
e 173 207
e 173 216
e 174 176
e 174 179
e 174 184
e 174 193
e 174 203
e 174 235
e 174 239
e 175 177
e 175 179
e 175 186
e 175 206
e 175 228
e 176 182
e 176 203
e 176 237
e 176 251
e 177 190
e 177 195
e 177 196
e 177 199
e 177 202
e 177 215
e 177 219
e 177 222
e 177 223
e 177 226
e 177 229
e 177 241
e 177 250
e 178 189
e 178 190
e 178 241
e 179 203
e 179 206
e 179 211
e 179 225
e 179 230
e 180 182
e 180 192
e 180 213
e 180 222
e 180 228
e 181 198
e 182 195
e 182 198
e 182 215
e 182 248
e 183 196
e 183 230
e 183 247
e 184 185
e 184 222
e 184 240
e 184 241
e 185 197
e 185 202
e 185 217
e 186 214
e 187 194
e 187 205
e 187 217
e 187 220
e 188 197
e 188 205
e 188 213
e 188 244
e 189 212
e 189 225
e 189 240
e 189 243
e 190 194
e 190 195
e 190 226
e 191 241
e 191 252
e 192 204
e 193 250
e 194 206
e 194 212
e 194 251
e 195 208
e 195 213
e 195 225
e 195 233
e 195 237
e 196 212
e 196 250
e 197 211
e 197 237
e 198 212
e 198 239
e 198 245
e 199 230
e 200 221
e 200 233
e 201 203
e 201 208
e 201 215
e 201 231
e 201 232
e 202 223
e 203 223
e 204 216
e 204 229
e 204 232
e 204 233
e 204 241
e 205 217
e 205 220
e 205 237
e 206 210
e 207 230
e 208 251
e 209 210
e 209 232
e 209 247
e 209 251
e 210 223
e 211 219
e 211 229
e 212 227
e 212 241
e 213 226
e 214 251
e 215 237
e 216 217
e 216 246
e 216 249
e 217 238
e 217 252
e 218 252
e 219 242
e 220 221
e 221 223
e 221 234
e 221 235
e 221 238
e 222 231
e 222 234
e 222 249
e 224 235
e 224 240
e 224 249
e 225 248
e 226 238
e 227 241
e 228 231
e 228 235
e 228 248
e 228 251
e 230 244
e 230 251
e 234 243
e 237 244
e 238 249
e 246 248
